(set-info :source |printed by MathSAT|)
(declare-fun |.x{8}| () (Array Int Int))
(declare-fun |.x{18}| () (Array Int Int))
(declare-fun |.x{9}| () Int)
(declare-fun |.x{15}| () Int)
(declare-fun |.x{10}| () Int)
(declare-fun |.x{19}| () Int)
(declare-fun |.x{11}| () Int)
(declare-fun |.x{20}| () Int)
(declare-fun |.x{12}| () Int)
(declare-fun |.x{21}| () Int)
(declare-fun |.x{13}| () Int)
(declare-fun |.x{22}| () Int)
(declare-fun |.x{14}| () Int)
(declare-fun |.x{23}| () Int)
(declare-fun |.x{31}| () Int)
(define-fun .def_14 () Int (! |.x{11}| :next |.x{20}|))
(define-fun .def_68 () Bool (= .def_14 1))
(define-fun .def_12 () Int (! |.x{10}| :next |.x{19}|))
(define-fun .def_66 () Bool (<= .def_12 0))
(define-fun .def_67 () Bool (not .def_66))
(define-fun .def_69 () Bool (and .def_67 .def_68))
(define-fun .def_16 () Int (! |.x{12}| :next |.x{21}|))
(define-fun .def_65 () Bool (= .def_16 3))
(define-fun .def_70 () Bool (and .def_65 .def_69))
(define-fun .def_18 () Int (! |.x{13}| :next |.x{22}|))
(define-fun .def_64 () Bool (= .def_18 7))
(define-fun .def_71 () Bool (and .def_64 .def_70))
(define-fun .def_10 () Int (! |.x{9}| :next |.x{15}|))
(define-fun .def_62 () Bool (= .def_10 1))
(define-fun .def_72 () Bool (! (and .def_62 .def_71) :init true))
(define-fun .def_20 () Int (! |.x{14}| :next |.x{23}|))
(define-fun .def_59 () Bool (= .def_20 |.x{23}|))
(define-fun .def_57 () Bool (= .def_18 |.x{22}|))
(define-fun .def_55 () Bool (= .def_16 |.x{21}|))
(define-fun .def_53 () Bool (= .def_14 |.x{20}|))
(define-fun .def_51 () Bool (= .def_12 |.x{19}|))
(define-fun .def_48 () Bool (<= .def_10 .def_12))
(define-fun .def_45 () Int (* (- 1) |.x{15}|))
(define-fun .def_46 () Int (+ .def_10 .def_45))
(define-fun .def_47 () Bool (= .def_46 (- 1)))
(define-fun .def_49 () Bool (and .def_47 .def_48))
(define-fun .def_25 () Int (* 3 .def_10))
(define-fun .def_39 () Int (+ .def_25 (- 1)))
(define-fun .def_28 () Int (+ .def_25 (- 2)))
(define-fun .def_30 () Int (+ .def_25 (- 3)))
(define-fun .def_8 () (Array Int Int) (! |.x{8}| :next |.x{18}|))
(define-fun .def_31 () (Array Int Int) (store .def_8 .def_30 0))
(define-fun .def_32 () (Array Int Int) (store .def_8 .def_30 .def_18))
(define-fun .def_33 () Bool (<= .def_20 .def_18))
(define-fun .def_34 () (Array Int Int) (ite .def_33 .def_32 .def_31))
(define-fun .def_35 () (Array Int Int) (store .def_34 .def_28 0))
(define-fun .def_36 () (Array Int Int) (store .def_34 .def_28 .def_16))
(define-fun .def_37 () Bool (<= .def_20 .def_16))
(define-fun .def_38 () (Array Int Int) (ite .def_37 .def_36 .def_35))
(define-fun .def_40 () (Array Int Int) (store .def_38 .def_39 0))
(define-fun .def_41 () (Array Int Int) (store .def_38 .def_39 .def_14))
(define-fun .def_42 () Bool (<= .def_20 .def_14))
(define-fun .def_43 () (Array Int Int) (ite .def_42 .def_41 .def_40))
(define-fun .def_44 () Bool (= |.x{18}| .def_43))
(define-fun .def_50 () Bool (and .def_44 .def_49))
(define-fun .def_52 () Bool (and .def_50 .def_51))
(define-fun .def_54 () Bool (and .def_52 .def_53))
(define-fun .def_56 () Bool (and .def_54 .def_55))
(define-fun .def_58 () Bool (and .def_56 .def_57))
(define-fun .def_60 () Bool (! (and .def_58 .def_59) :trans true))
(define-fun .def_73 () Int (! |.x{31}| :next |.xpv{1}|))
(define-fun .def_84 () Int (select .def_8 .def_73))
(define-fun .def_88 () Bool (<= .def_20 .def_84))
(define-fun .def_89 () Bool (not .def_88))
(define-fun .def_85 () Bool (= .def_84 0))
(define-fun .def_86 () Bool (not .def_85))
(define-fun .def_81 () Bool (not .def_48))
(define-fun .def_80 () Bool (<= 0 .def_73))
(define-fun .def_82 () Bool (and .def_80 .def_81))
(define-fun .def_74 () Int (* (- 1) .def_73))
(define-fun .def_75 () Int (* 3 .def_12))
(define-fun .def_77 () Int (+ .def_75 .def_74))
(define-fun .def_78 () Bool (<= .def_77 0))
(define-fun .def_79 () Bool (not .def_78))
(define-fun .def_83 () Bool (and .def_79 .def_82))
(define-fun .def_87 () Bool (and .def_83 .def_86))
(define-fun .def_90 () Bool (and .def_87 .def_89))
(define-fun .def_92 () Bool (! (not .def_90) :invar-property 0))
(assert true)
